brIzvrsilaca = 3;
brPoslova = 5;

Resursi = { Stampac, Papir, Memorija };

duzina = [2,3,1,4,3];

zavisiOd = [|false, true ,false,false,false|
                    false,false,false,true,false|
                    true,false,false,false,false|
                    false,false,false,false,false|
                    false,false,false,true,false|];

 ukupnaKolicina = [2, 200, 1024];
 
potrebnaKolicina = [|1, 80, 256|
                                1, 100, 512|
                                2, 70, 128|
                                1, 20, 200|
                                1, 50, 560|];
                                                    
